c uprop, v00.0, 
c reading from data/prog818.c.cnf
c done reading: 0.002156
p cnf 114 493
-62 -70 0
62 70 0
-73 -76 0
73 76 0
-65 -80 0
65 80 0
-83 -85 0
83 85 0
-62 72 0
62 -72 0
62 -72 -87 0
-72 -87 0
-62 72 87 0
72 87 0
-62 -73 78 0
-72 -73 78 0
-62 -72 78 0
62 73 -78 0
72 73 -78 0
62 72 -78 0
73 -78 -88 0
62 -78 -88 0
72 -78 -88 0
-73 78 88 0
-62 78 88 0
-72 78 88 0
-62 -72 -73 88 0
62 72 73 -88 0
67 -73 -80 0
67 -78 -80 0
67 -73 -78 0
-67 73 80 0
-67 78 80 0
-67 73 78 0
-60 -67 80 0
-60 -67 73 0
-60 -67 78 0
60 67 -80 0
60 67 -73 0
60 67 -78 0
60 -73 -78 -80 0
-60 73 78 80 0
59 -80 -85 0
59 -67 -85 0
59 -67 -80 0
-59 80 85 0
-59 67 85 0
-59 67 80 0
-58 -59 85 0
-58 -59 80 0
-58 -59 67 0
58 59 -85 0
58 59 -80 0
58 59 -67 0
58 -67 -80 -85 0
-58 67 80 85 0
-57 85 0
-57 59 0
57 -59 -85 0
-56 -59 -85 0
-56 59 85 0
56 59 -85 0
56 -59 85 0
55 -87 0
-55 87 0
68 -88 0
-68 88 0
-54 -68 88 0
-54 -68 0
54 68 -88 0
54 68 0
-60 -62 74 0
-60 -68 74 0
-62 -68 74 0
60 62 -74 0
60 68 -74 0
62 68 -74 0
-53 60 -74 0
-53 62 -74 0
-53 68 -74 0
53 -60 74 0
53 -62 74 0
53 -68 74 0
53 -60 -62 -68 0
-53 60 62 68 0
-58 63 -73 0
-58 63 -74 0
63 -73 -74 0
58 -63 73 0
58 -63 74 0
-63 73 74 0
-52 58 -63 0
-52 -63 73 0
-52 -63 74 0
52 -58 63 0
52 63 -73 0
52 63 -74 0
52 -58 -73 -74 0
-52 58 73 74 0
-56 -80 81 0
-56 -63 81 0
-63 -80 81 0
56 80 -81 0
56 63 -81 0
63 80 -81 0
-51 56 -81 0
-51 80 -81 0
-51 63 -81 0
51 -56 81 0
51 -80 81 0
51 -63 81 0
51 -56 -63 -80 0
-51 56 63 80 0
50 -57 -85 0
50 -57 -81 0
50 -81 -85 0
-50 57 85 0
-50 57 81 0
-50 81 85 0
-49 -50 57 0
-49 -50 85 0
-49 -50 81 0
49 50 -57 0
49 50 -85 0
49 50 -81 0
49 -57 -81 -85 0
-49 57 81 85 0
-55 89 0
55 -89 0
55 -89 -90 0
-89 -90 0
-55 89 90 0
89 90 0
-54 -89 91 0
54 -91 0
54 89 -91 0
89 -91 0
54 -91 -92 0
-91 -92 0
89 -91 -92 0
-54 91 92 0
-89 91 92 0
54 89 -92 0
-53 93 0
-53 -91 93 0
-91 93 0
53 91 -93 0
53 -93 -94 0
91 -93 -94 0
-53 93 94 0
93 94 0
-91 93 94 0
-53 -91 94 0
-52 -62 95 0
-52 -93 95 0
-62 -93 95 0
52 62 -95 0
52 93 -95 0
62 93 -95 0
52 -95 -96 0
62 -95 -96 0
93 -95 -96 0
-52 95 96 0
-62 95 96 0
-93 95 96 0
-52 -62 -93 96 0
52 62 93 -96 0
-51 -73 97 0
-51 -95 97 0
-73 -95 97 0
51 73 -97 0
51 95 -97 0
73 95 -97 0
51 -97 -98 0
73 -97 -98 0
95 -97 -98 0
-51 97 98 0
-73 97 98 0
-95 97 98 0
-51 -73 -95 98 0
51 73 95 -98 0
-49 -80 99 0
-49 -97 99 0
-80 -97 99 0
49 80 -99 0
49 97 -99 0
80 97 -99 0
49 -99 -100 0
80 -99 -100 0
97 -99 -100 0
-49 99 100 0
-80 99 100 0
-97 99 100 0
-49 -80 -97 100 0
49 80 97 -100 0
-50 -85 101 0
-50 -99 101 0
-85 -99 101 0
50 85 -101 0
50 99 -101 0
85 99 -101 0
50 -101 -102 0
85 -101 -102 0
99 -101 -102 0
-50 101 102 0
-85 101 102 0
-99 101 102 0
-50 -85 -99 102 0
50 85 99 -102 0
92 -103 0
-92 103 0
-92 -104 0
92 104 0
-94 -103 105 0
94 -105 0
94 103 -105 0
103 -105 0
94 -105 -106 0
-105 -106 0
103 -105 -106 0
-94 105 106 0
-103 105 106 0
94 103 -106 0
71 -96 -105 0
-71 96 0
-71 96 105 0
-71 105 0
-71 96 -107 0
-71 -107 0
-71 105 -107 0
71 -96 107 0
71 -105 107 0
96 105 -107 0
77 -98 0
-71 77 -98 0
-71 77 0
71 -77 98 0
-77 98 -108 0
71 -77 -108 0
77 -98 108 0
77 108 0
-71 77 108 0
-71 -98 108 0
-62 66 -100 0
66 -77 -100 0
-62 66 -77 0
62 -66 100 0
-66 77 100 0
62 -66 77 0
-66 100 -109 0
62 -66 -109 0
-66 77 -109 0
66 -100 109 0
-62 66 109 0
66 -77 109 0
-62 -77 -100 109 0
62 77 100 -109 0
-73 84 -102 0
-66 84 -102 0
-66 -73 84 0
73 -84 102 0
66 -84 102 0
66 73 -84 0
-84 102 -110 0
73 -84 -110 0
66 -84 -110 0
84 -102 110 0
-73 84 110 0
-66 84 110 0
-66 -73 -102 110 0
66 73 102 -110 0
-80 -101 111 0
-84 -101 111 0
-80 -84 111 0
80 101 -111 0
84 101 -111 0
80 84 -111 0
101 -111 -112 0
80 -111 -112 0
84 -111 -112 0
-101 111 112 0
-80 111 112 0
-84 111 112 0
-80 -84 -101 112 0
80 84 101 -112 0
85 -113 0
111 -113 0
-85 -111 113 0
-85 -111 -114 0
85 111 -114 0
-85 111 114 0
85 -111 114 0
-48 -90 0
48 90 0
-47 -104 0
47 104 0
-46 -106 0
46 106 0
-45 -107 0
45 107 0
-44 -108 0
44 108 0
-43 -109 0
43 109 0
-42 -110 0
42 110 0
-61 -112 0
61 112 0
-79 -114 0
79 114 0
-41 -113 0
41 113 0
-39 -40 0
-38 -39 0
38 39 40 0
-37 38 40 0
-37 -38 -40 0
37 38 -40 0
37 -38 40 0
-35 39 0
-35 -36 0
35 36 -39 0
-33 36 -39 0
-33 -36 39 0
33 36 39 0
33 -36 -39 0
-31 35 0
-31 -34 0
31 34 -35 0
-29 34 -35 0
-29 -34 35 0
29 34 35 0
29 -34 -35 0
-27 31 0
-27 -32 0
27 -31 32 0
-25 -31 32 0
-25 31 -32 0
25 31 32 0
25 -31 -32 0
-24 27 0
-24 -30 0
24 -27 30 0
-23 -27 30 0
-23 27 -30 0
23 27 30 0
23 -27 -30 0
-22 24 0
-22 -28 0
22 -24 28 0
-21 -24 28 0
-21 24 -28 0
21 24 28 0
21 -24 -28 0
-20 22 0
-20 -26 0
20 -22 26 0
-19 -22 26 0
-19 22 -26 0
19 22 26 0
19 -22 -26 0
-18 -40 0
-18 -38 0
18 38 40 0
-17 38 40 0
-17 -38 -40 0
17 38 -40 0
17 -38 40 0
-16 18 0
-16 -36 0
16 -18 36 0
-15 -18 36 0
-15 18 -36 0
15 18 36 0
15 -18 -36 0
-14 16 0
-14 -34 0
14 -16 34 0
-13 -16 34 0
-13 16 -34 0
13 16 34 0
13 -16 -34 0
-12 14 0
-12 -32 0
12 -14 32 0
-11 -14 32 0
-11 14 -32 0
11 14 32 0
11 -14 -32 0
-10 12 0
-10 -30 0
10 -12 30 0
-9 -12 30 0
-9 12 -30 0
9 12 30 0
9 -12 -30 0
-8 10 0
-8 -28 0
8 -10 28 0
-7 -10 28 0
-7 10 -28 0
7 10 28 0
7 -10 -28 0
-6 8 0
-6 -26 0
6 -8 26 0
-5 -8 26 0
-5 8 -26 0
5 8 26 0
5 -8 -26 0
-4 90 0
-4 40 0
4 -40 -90 0
40 -90 0
-40 90 0
-38 69 -104 0
-4 69 -104 0
-4 -38 69 0
38 -69 104 0
4 -69 104 0
4 38 -69 0
-69 104 0
38 -69 0
4 -69 0
4 38 104 0
-36 75 -106 0
-69 75 -106 0
-36 -69 75 0
36 -75 106 0
69 -75 106 0
36 69 -75 0
-75 106 0
36 -75 0
69 -75 0
36 69 106 0
-34 64 -107 0
64 -75 -107 0
-34 64 -75 0
34 -64 107 0
-64 75 107 0
34 -64 75 0
64 -107 0
-34 64 0
64 -75 0
-34 -75 -107 0
-32 82 -108 0
-64 82 -108 0
-32 -64 82 0
32 -82 108 0
64 -82 108 0
32 64 -82 0
82 -108 0
-32 82 0
-64 82 0
-32 -64 -108 0
3 -30 -109 0
3 -82 -109 0
3 -30 -82 0
-3 30 109 0
-3 82 109 0
-3 30 82 0
3 -109 0
3 -30 0
3 -82 0
-30 -82 -109 0
2 -28 -110 0
2 -3 -110 0
2 -3 -28 0
-2 28 110 0
-2 3 110 0
-2 3 28 0
2 -110 0
2 -28 0
2 -3 0
-3 -28 -110 0
1 -26 -112 0
1 -2 -112 0
1 -2 -26 0
-1 26 112 0
-1 2 112 0
-1 2 26 0
1 -112 0
1 -26 0
1 -2 0
-2 -26 -112 0
-86 114 0
1 -86 0
-1 86 -114 0
1 -114 0
-1 114 0
-86 -113 0
86 -113 0
-86 113 0
